p cnf 11 29
 8  6 9 0
 -8  -9 0
 -6  -9 0
 7  -2 8 0
 -7  -8 0
 2  -8 0
 -4  -3 7 0
 4  -7 0
 3  -7 0
 -3  -1 6 0
 3  -6 0
 1  -6 0
 8  6 10 0
 -8  -10 0
 -6  -10 0
 -3  -1 8 0
 3  -8 0
 1  -8 0
 7  -2 6 0
 -7  -6 0
 2  -6 0
 -3  -4 7 0
 3  -7 0
 4  -7 0
-9 -10 -11 0
-9 10 11 0
 9 -10 11 0
 9 10 -11 0
11 0
